(set-option :produce-models true)
(set-info :source |printed by MathSAT|)
(declare-fun x_59 () Real)
(declare-fun x_15 () Real)
(declare-fun x_63 () Real)
(declare-fun x_19 () Real)
(declare-fun x_67 () Real)
(declare-fun x_23 () Real)
(declare-fun x_71 () Bool)
(declare-fun x_27 () Real)
(declare-fun x_75 () Real)
(declare-fun x_38 () Bool)
(declare-fun x_9 () Bool)
(declare-fun x_31 () Bool)
(declare-fun x_79 () Real)
(declare-fun x_42 () Bool)
(declare-fun x_36 () Bool)
(declare-fun x_83 () Bool)
(declare-fun x_94 () Bool)
(declare-fun x_87 () Real)
(declare-fun x_98 () Bool)
(declare-fun x_0 () Bool)
(declare-fun x_91 () Real)
(declare-fun x_48 () Real)
(declare-fun x_102 () Bool)
(declare-fun x_52 () Bool)
(declare-fun x_106 () Real)
(declare-fun x_56 () Real)
(declare-fun x_12 () Bool)
(declare-fun x_2 () Real)
(declare-fun x_60 () Real)
(declare-fun x_16 () Bool)
(declare-fun x_64 () Real)
(declare-fun x_20 () Real)
(declare-fun x_68 () Bool)
(declare-fun x_24 () Real)
(declare-fun x_72 () Real)
(declare-fun x_5 () Bool)
(declare-fun x_28 () Real)
(declare-fun x_76 () Real)
(declare-fun x_10 () Real)
(declare-fun x_39 () Bool)
(declare-fun x_32 () Real)
(declare-fun x_80 () Bool)
(declare-fun x_43 () Real)
(declare-fun x_37 () Bool)
(declare-fun x_84 () Real)
(declare-fun x_95 () Real)
(declare-fun x_88 () Real)
(declare-fun x_45 () Real)
(declare-fun x_99 () Bool)
(declare-fun x_49 () Real)
(declare-fun x_103 () Real)
(declare-fun x_53 () Real)
(declare-fun x_57 () Bool)
(declare-fun x_13 () Bool)
(declare-fun x_3 () Real)
(declare-fun x_61 () Real)
(declare-fun x_17 () Bool)
(declare-fun x_65 () Real)
(declare-fun x_21 () Real)
(declare-fun x_69 () Bool)
(declare-fun x_25 () Real)
(declare-fun x_73 () Real)
(declare-fun x_6 () Real)
(declare-fun x_29 () Real)
(declare-fun x_1 () Bool)
(declare-fun x_77 () Real)
(declare-fun x_40 () Bool)
(declare-fun x_33 () Real)
(declare-fun z () Real)
(declare-fun x_81 () Real)
(declare-fun x_44 () Real)
(declare-fun x_92 () Real)
(declare-fun x_85 () Bool)
(declare-fun x_96 () Real)
(declare-fun x_89 () Real)
(declare-fun x_46 () Real)
(declare-fun x_100 () Bool)
(declare-fun x_50 () Real)
(declare-fun x_104 () Real)
(declare-fun x_34 () Real)
(declare-fun x_54 () Bool)
(declare-fun x_58 () Real)
(declare-fun x_14 () Real)
(declare-fun x_4 () Bool)
(declare-fun x_62 () Real)
(declare-fun x_18 () Real)
(declare-fun x_66 () Bool)
(declare-fun x_22 () Real)
(declare-fun x_70 () Real)
(declare-fun x_26 () Real)
(declare-fun x_74 () Real)
(declare-fun x_8 () Bool)
(declare-fun x_7 () Real)
(declare-fun x_30 () Bool)
(declare-fun x_78 () Real)
(declare-fun x_41 () Real)
(declare-fun x_35 () Real)
(declare-fun x_82 () Bool)
(declare-fun x_93 () Real)
(declare-fun x_86 () Real)
(declare-fun x_97 () Bool)
(declare-fun x_90 () Real)
(declare-fun x_47 () Real)
(declare-fun x_101 () Real)
(declare-fun x_51 () Real)
(declare-fun x_105 () Real)
(declare-fun x_55 () Bool)
(declare-fun x_11 () Real)
(define-fun .def_851 () Bool (= x_34 z))
(define-fun .def_847 () Bool (= x_95 x_103))
(define-fun .def_848 () Bool (not .def_847))
(define-fun .def_844 () Bool (= x_98 x_97))
(define-fun .def_845 () Bool (not .def_844))
(define-fun .def_838 () Bool (= x_46 (to_real 2)))
(define-fun .def_14 () Bool (= x_26 x_27))
(define-fun .def_839 () Bool (and .def_14 .def_838))
(define-fun .def_24 () Bool (= x_7 x_3))
(define-fun .def_840 () Bool (and .def_24 .def_839))
(define-fun .def_18 () Bool (= x_28 x_29))
(define-fun .def_841 () Bool (and .def_18 .def_840))
(define-fun .def_256 () Real (* (to_real (- 1)) x_34))
(define-fun .def_25 () Bool (<= x_22 x_26))
(define-fun .def_26 () Real (ite .def_25 x_22 x_26))
(define-fun .def_783 () Real (* (to_real (- 1)) .def_26))
(define-fun .def_784 () Real (+ .def_783 .def_256))
(define-fun .def_834 () Real (+ x_28 .def_784))
(define-fun .def_835 () Bool (= .def_834 (to_real 0)))
(define-fun .def_832 () Bool (not .def_24))
(define-fun .def_830 () Bool (= x_46 (to_real 1)))
(define-fun .def_831 () Bool (and .def_14 .def_830))
(define-fun .def_833 () Bool (and .def_831 .def_832))
(define-fun .def_836 () Bool (and .def_833 .def_835))
(define-fun .def_826 () Bool (= x_3 x_6))
(define-fun .def_824 () Bool (<= x_29 .def_26))
(define-fun .def_825 () Bool (not .def_824))
(define-fun .def_827 () Bool (or .def_825 .def_826))
(define-fun .def_822 () Bool (= x_46 (to_real 0)))
(define-fun .def_15 () Bool (not .def_14))
(define-fun .def_823 () Bool (and .def_15 .def_822))
(define-fun .def_828 () Bool (and .def_823 .def_827))
(define-fun .def_829 () Bool (and .def_18 .def_828))
(define-fun .def_837 () Bool (or .def_829 .def_836))
(define-fun .def_842 () Bool (or .def_837 .def_841))
(define-fun .def_815 () Bool (= x_44 (to_real 2)))
(define-fun .def_8 () Bool (= x_22 x_23))
(define-fun .def_816 () Bool (and .def_8 .def_815))
(define-fun .def_115 () Bool (= x_5 x_1))
(define-fun .def_817 () Bool (and .def_115 .def_816))
(define-fun .def_11 () Bool (= x_24 x_25))
(define-fun .def_818 () Bool (and .def_11 .def_817))
(define-fun .def_285 () Real (* (to_real (- 1)) x_45))
(define-fun .def_27 () Bool (<= x_26 x_22))
(define-fun .def_28 () Real (ite .def_27 x_26 x_22))
(define-fun .def_721 () Real (* (to_real (- 1)) .def_28))
(define-fun .def_810 () Real (+ .def_721 .def_285))
(define-fun .def_811 () Real (+ x_24 .def_810))
(define-fun .def_812 () Bool (= .def_811 (to_real 0)))
(define-fun .def_807 () Bool (not .def_115))
(define-fun .def_805 () Bool (= x_44 (to_real 1)))
(define-fun .def_806 () Bool (and .def_8 .def_805))
(define-fun .def_808 () Bool (and .def_806 .def_807))
(define-fun .def_813 () Bool (and .def_808 .def_812))
(define-fun .def_801 () Bool (= x_1 x_37))
(define-fun .def_799 () Bool (<= x_25 .def_28))
(define-fun .def_800 () Bool (not .def_799))
(define-fun .def_802 () Bool (or .def_800 .def_801))
(define-fun .def_797 () Bool (not .def_8))
(define-fun .def_796 () Bool (= x_44 (to_real 0)))
(define-fun .def_798 () Bool (and .def_796 .def_797))
(define-fun .def_803 () Bool (and .def_798 .def_802))
(define-fun .def_804 () Bool (and .def_11 .def_803))
(define-fun .def_814 () Bool (or .def_804 .def_813))
(define-fun .def_819 () Bool (or .def_814 .def_818))
(define-fun .def_789 () Bool (= x_43 (to_real 2)))
(define-fun .def_790 () Bool (and .def_14 .def_789))
(define-fun .def_21 () Bool (= x_30 x_31))
(define-fun .def_791 () Bool (and .def_21 .def_790))
(define-fun .def_5 () Bool (= x_20 x_21))
(define-fun .def_792 () Bool (and .def_5 .def_791))
(define-fun .def_785 () Real (+ x_20 .def_784))
(define-fun .def_786 () Bool (= .def_785 (to_real 0)))
(define-fun .def_781 () Bool (not .def_21))
(define-fun .def_779 () Bool (= x_43 (to_real 1)))
(define-fun .def_780 () Bool (and .def_14 .def_779))
(define-fun .def_782 () Bool (and .def_780 .def_781))
(define-fun .def_787 () Bool (and .def_782 .def_786))
(define-fun .def_775 () Bool (= x_31 x_42))
(define-fun .def_773 () Bool (<= x_21 .def_26))
(define-fun .def_774 () Bool (not .def_773))
(define-fun .def_776 () Bool (or .def_774 .def_775))
(define-fun .def_771 () Bool (= x_43 (to_real 0)))
(define-fun .def_772 () Bool (and .def_15 .def_771))
(define-fun .def_777 () Bool (and .def_772 .def_776))
(define-fun .def_778 () Bool (and .def_5 .def_777))
(define-fun .def_788 () Bool (or .def_778 .def_787))
(define-fun .def_793 () Bool (or .def_788 .def_792))
(define-fun .def_764 () Bool (= x_6 x_2))
(define-fun .def_762 () Bool (= x_4 x_0))
(define-fun .def_760 () Bool (= x_42 x_36))
(define-fun .def_755 () Bool (not x_31))
(define-fun .def_756 () Bool (= x_30 .def_755))
(define-fun .def_753 () Bool (= x_31 x_40))
(define-fun .def_752 () Bool (= x_41 (to_real 1)))
(define-fun .def_754 () Bool (and .def_752 .def_753))
(define-fun .def_757 () Bool (and .def_754 .def_756))
(define-fun .def_749 () Bool (= x_41 (to_real 0)))
(define-fun .def_750 () Bool (and .def_21 .def_749))
(define-fun .def_751 () Bool (and .def_24 .def_750))
(define-fun .def_758 () Bool (or .def_751 .def_757))
(define-fun .def_214 () Real (* (to_real (- 1)) x_33))
(define-fun .def_744 () Real (+ .def_721 .def_214))
(define-fun .def_745 () Real (+ x_23 .def_744))
(define-fun .def_746 () Bool (<= (to_real 0) .def_745))
(define-fun .def_741 () Bool (= x_22 .def_28))
(define-fun .def_739 () Bool (= x_39 x_38))
(define-fun .def_738 () Bool (= x_35 (to_real 1)))
(define-fun .def_740 () Bool (and .def_738 .def_739))
(define-fun .def_742 () Bool (and .def_740 .def_741))
(define-fun .def_747 () Bool (and .def_742 .def_746))
(define-fun .def_759 () Bool (and .def_747 .def_758))
(define-fun .def_761 () Bool (and .def_759 .def_760))
(define-fun .def_763 () Bool (and .def_761 .def_762))
(define-fun .def_765 () Bool (and .def_763 .def_764))
(define-fun .def_766 () Bool (and .def_14 .def_765))
(define-fun .def_767 () Bool (and .def_115 .def_766))
(define-fun .def_733 () Bool (= x_39 x_40))
(define-fun .def_730 () Bool (= x_37 x_38))
(define-fun .def_726 () Bool (= x_5 x_0))
(define-fun .def_727 () Bool (or .def_115 .def_726))
(define-fun .def_187 () Real (* (to_real (- 1)) x_32))
(define-fun .def_722 () Real (+ .def_721 .def_187))
(define-fun .def_723 () Real (+ x_27 .def_722))
(define-fun .def_724 () Bool (<= (to_real 0) .def_723))
(define-fun .def_718 () Bool (= x_26 .def_28))
(define-fun .def_716 () Bool (= x_4 x_36))
(define-fun .def_714 () Bool (= x_35 (to_real 0)))
(define-fun .def_717 () Bool (and .def_714 .def_716))
(define-fun .def_719 () Bool (and .def_717 .def_718))
(define-fun .def_725 () Bool (and .def_719 .def_724))
(define-fun .def_728 () Bool (and .def_725 .def_727))
(define-fun .def_731 () Bool (and .def_728 .def_730))
(define-fun .def_734 () Bool (and .def_731 .def_733))
(define-fun .def_735 () Bool (and .def_8 .def_734))
(define-fun .def_736 () Bool (and .def_21 .def_735))
(define-fun .def_737 () Bool (and .def_24 .def_736))
(define-fun .def_768 () Bool (or .def_737 .def_767))
(define-fun .def_707 () Bool (= x_60 (to_real 2)))
(define-fun .def_36 () Bool (= x_27 x_50))
(define-fun .def_708 () Bool (and .def_36 .def_707))
(define-fun .def_43 () Bool (= x_7 x_11))
(define-fun .def_709 () Bool (and .def_43 .def_708))
(define-fun .def_39 () Bool (= x_28 x_51))
(define-fun .def_710 () Bool (and .def_39 .def_709))
(define-fun .def_44 () Bool (<= x_23 x_27))
(define-fun .def_45 () Real (ite .def_44 x_23 x_27))
(define-fun .def_652 () Real (* (to_real (- 1)) .def_45))
(define-fun .def_653 () Real (+ .def_652 .def_256))
(define-fun .def_703 () Real (+ x_51 .def_653))
(define-fun .def_704 () Bool (= .def_703 (to_real 0)))
(define-fun .def_701 () Bool (not .def_43))
(define-fun .def_699 () Bool (= x_60 (to_real 1)))
(define-fun .def_700 () Bool (and .def_36 .def_699))
(define-fun .def_702 () Bool (and .def_700 .def_701))
(define-fun .def_705 () Bool (and .def_702 .def_704))
(define-fun .def_695 () Bool (= x_7 x_10))
(define-fun .def_693 () Bool (<= x_28 .def_45))
(define-fun .def_694 () Bool (not .def_693))
(define-fun .def_696 () Bool (or .def_694 .def_695))
(define-fun .def_691 () Bool (= x_60 (to_real 0)))
(define-fun .def_37 () Bool (not .def_36))
(define-fun .def_692 () Bool (and .def_37 .def_691))
(define-fun .def_697 () Bool (and .def_692 .def_696))
(define-fun .def_698 () Bool (and .def_39 .def_697))
(define-fun .def_706 () Bool (or .def_698 .def_705))
(define-fun .def_711 () Bool (or .def_706 .def_710))
(define-fun .def_684 () Bool (= x_59 (to_real 2)))
(define-fun .def_32 () Bool (= x_23 x_48))
(define-fun .def_685 () Bool (and .def_32 .def_684))
(define-fun .def_113 () Bool (= x_9 x_5))
(define-fun .def_686 () Bool (and .def_113 .def_685))
(define-fun .def_34 () Bool (= x_24 x_49))
(define-fun .def_687 () Bool (and .def_34 .def_686))
(define-fun .def_46 () Bool (<= x_27 x_23))
(define-fun .def_47 () Real (ite .def_46 x_27 x_23))
(define-fun .def_590 () Real (* (to_real (- 1)) .def_47))
(define-fun .def_679 () Real (+ .def_590 .def_285))
(define-fun .def_680 () Real (+ x_49 .def_679))
(define-fun .def_681 () Bool (= .def_680 (to_real 0)))
(define-fun .def_676 () Bool (not .def_113))
(define-fun .def_674 () Bool (= x_59 (to_real 1)))
(define-fun .def_675 () Bool (and .def_32 .def_674))
(define-fun .def_677 () Bool (and .def_675 .def_676))
(define-fun .def_682 () Bool (and .def_677 .def_681))
(define-fun .def_670 () Bool (= x_5 x_54))
(define-fun .def_668 () Bool (<= x_24 .def_47))
(define-fun .def_669 () Bool (not .def_668))
(define-fun .def_671 () Bool (or .def_669 .def_670))
(define-fun .def_666 () Bool (not .def_32))
(define-fun .def_665 () Bool (= x_59 (to_real 0)))
(define-fun .def_667 () Bool (and .def_665 .def_666))
(define-fun .def_672 () Bool (and .def_667 .def_671))
(define-fun .def_673 () Bool (and .def_34 .def_672))
(define-fun .def_683 () Bool (or .def_673 .def_682))
(define-fun .def_688 () Bool (or .def_683 .def_687))
(define-fun .def_658 () Bool (= x_58 (to_real 2)))
(define-fun .def_659 () Bool (and .def_36 .def_658))
(define-fun .def_41 () Bool (= x_30 x_52))
(define-fun .def_660 () Bool (and .def_41 .def_659))
(define-fun .def_30 () Bool (= x_20 x_47))
(define-fun .def_661 () Bool (and .def_30 .def_660))
(define-fun .def_654 () Real (+ x_47 .def_653))
(define-fun .def_655 () Bool (= .def_654 (to_real 0)))
(define-fun .def_650 () Bool (not .def_41))
(define-fun .def_648 () Bool (= x_58 (to_real 1)))
(define-fun .def_649 () Bool (and .def_36 .def_648))
(define-fun .def_651 () Bool (and .def_649 .def_650))
(define-fun .def_656 () Bool (and .def_651 .def_655))
(define-fun .def_644 () Bool (= x_30 x_57))
(define-fun .def_642 () Bool (<= x_20 .def_45))
(define-fun .def_643 () Bool (not .def_642))
(define-fun .def_645 () Bool (or .def_643 .def_644))
(define-fun .def_640 () Bool (= x_58 (to_real 0)))
(define-fun .def_641 () Bool (and .def_37 .def_640))
(define-fun .def_646 () Bool (and .def_641 .def_645))
(define-fun .def_647 () Bool (and .def_30 .def_646))
(define-fun .def_657 () Bool (or .def_647 .def_656))
(define-fun .def_662 () Bool (or .def_657 .def_661))
(define-fun .def_633 () Bool (= x_10 x_6))
(define-fun .def_631 () Bool (= x_8 x_4))
(define-fun .def_629 () Bool (= x_57 x_42))
(define-fun .def_624 () Bool (not x_30))
(define-fun .def_625 () Bool (= x_52 .def_624))
(define-fun .def_622 () Bool (= x_30 x_39))
(define-fun .def_621 () Bool (= x_56 (to_real 1)))
(define-fun .def_623 () Bool (and .def_621 .def_622))
(define-fun .def_626 () Bool (and .def_623 .def_625))
(define-fun .def_618 () Bool (= x_56 (to_real 0)))
(define-fun .def_619 () Bool (and .def_41 .def_618))
(define-fun .def_620 () Bool (and .def_43 .def_619))
(define-fun .def_627 () Bool (or .def_620 .def_626))
(define-fun .def_613 () Real (+ .def_590 .def_214))
(define-fun .def_614 () Real (+ x_48 .def_613))
(define-fun .def_615 () Bool (<= (to_real 0) .def_614))
(define-fun .def_610 () Bool (= x_23 .def_47))
(define-fun .def_608 () Bool (= x_55 x_37))
(define-fun .def_607 () Bool (= x_53 (to_real 1)))
(define-fun .def_609 () Bool (and .def_607 .def_608))
(define-fun .def_611 () Bool (and .def_609 .def_610))
(define-fun .def_616 () Bool (and .def_611 .def_615))
(define-fun .def_628 () Bool (and .def_616 .def_627))
(define-fun .def_630 () Bool (and .def_628 .def_629))
(define-fun .def_632 () Bool (and .def_630 .def_631))
(define-fun .def_634 () Bool (and .def_632 .def_633))
(define-fun .def_635 () Bool (and .def_36 .def_634))
(define-fun .def_636 () Bool (and .def_113 .def_635))
(define-fun .def_602 () Bool (= x_55 x_39))
(define-fun .def_599 () Bool (= x_54 x_37))
(define-fun .def_595 () Bool (= x_9 x_4))
(define-fun .def_596 () Bool (or .def_113 .def_595))
(define-fun .def_591 () Real (+ .def_590 .def_187))
(define-fun .def_592 () Real (+ x_50 .def_591))
(define-fun .def_593 () Bool (<= (to_real 0) .def_592))
(define-fun .def_587 () Bool (= x_27 .def_47))
(define-fun .def_585 () Bool (= x_8 x_42))
(define-fun .def_583 () Bool (= x_53 (to_real 0)))
(define-fun .def_586 () Bool (and .def_583 .def_585))
(define-fun .def_588 () Bool (and .def_586 .def_587))
(define-fun .def_594 () Bool (and .def_588 .def_593))
(define-fun .def_597 () Bool (and .def_594 .def_596))
(define-fun .def_600 () Bool (and .def_597 .def_599))
(define-fun .def_603 () Bool (and .def_600 .def_602))
(define-fun .def_604 () Bool (and .def_32 .def_603))
(define-fun .def_605 () Bool (and .def_41 .def_604))
(define-fun .def_606 () Bool (and .def_43 .def_605))
(define-fun .def_637 () Bool (or .def_606 .def_636))
(define-fun .def_576 () Bool (= x_74 (to_real 2)))
(define-fun .def_55 () Bool (= x_50 x_64))
(define-fun .def_577 () Bool (and .def_55 .def_576))
(define-fun .def_62 () Bool (= x_11 x_15))
(define-fun .def_578 () Bool (and .def_62 .def_577))
(define-fun .def_58 () Bool (= x_51 x_65))
(define-fun .def_579 () Bool (and .def_58 .def_578))
(define-fun .def_63 () Bool (<= x_48 x_50))
(define-fun .def_64 () Real (ite .def_63 x_48 x_50))
(define-fun .def_521 () Real (* (to_real (- 1)) .def_64))
(define-fun .def_522 () Real (+ .def_521 .def_256))
(define-fun .def_572 () Real (+ x_65 .def_522))
(define-fun .def_573 () Bool (= .def_572 (to_real 0)))
(define-fun .def_570 () Bool (not .def_62))
(define-fun .def_568 () Bool (= x_74 (to_real 1)))
(define-fun .def_569 () Bool (and .def_55 .def_568))
(define-fun .def_571 () Bool (and .def_569 .def_570))
(define-fun .def_574 () Bool (and .def_571 .def_573))
(define-fun .def_564 () Bool (= x_11 x_14))
(define-fun .def_562 () Bool (<= x_51 .def_64))
(define-fun .def_563 () Bool (not .def_562))
(define-fun .def_565 () Bool (or .def_563 .def_564))
(define-fun .def_560 () Bool (= x_74 (to_real 0)))
(define-fun .def_56 () Bool (not .def_55))
(define-fun .def_561 () Bool (and .def_56 .def_560))
(define-fun .def_566 () Bool (and .def_561 .def_565))
(define-fun .def_567 () Bool (and .def_58 .def_566))
(define-fun .def_575 () Bool (or .def_567 .def_574))
(define-fun .def_580 () Bool (or .def_575 .def_579))
(define-fun .def_553 () Bool (= x_73 (to_real 2)))
(define-fun .def_51 () Bool (= x_48 x_62))
(define-fun .def_554 () Bool (and .def_51 .def_553))
(define-fun .def_111 () Bool (= x_13 x_9))
(define-fun .def_555 () Bool (and .def_111 .def_554))
(define-fun .def_53 () Bool (= x_49 x_63))
(define-fun .def_556 () Bool (and .def_53 .def_555))
(define-fun .def_65 () Bool (<= x_50 x_48))
(define-fun .def_66 () Real (ite .def_65 x_50 x_48))
(define-fun .def_459 () Real (* (to_real (- 1)) .def_66))
(define-fun .def_548 () Real (+ .def_459 .def_285))
(define-fun .def_549 () Real (+ x_63 .def_548))
(define-fun .def_550 () Bool (= .def_549 (to_real 0)))
(define-fun .def_545 () Bool (not .def_111))
(define-fun .def_543 () Bool (= x_73 (to_real 1)))
(define-fun .def_544 () Bool (and .def_51 .def_543))
(define-fun .def_546 () Bool (and .def_544 .def_545))
(define-fun .def_551 () Bool (and .def_546 .def_550))
(define-fun .def_539 () Bool (= x_9 x_68))
(define-fun .def_537 () Bool (<= x_49 .def_66))
(define-fun .def_538 () Bool (not .def_537))
(define-fun .def_540 () Bool (or .def_538 .def_539))
(define-fun .def_535 () Bool (not .def_51))
(define-fun .def_534 () Bool (= x_73 (to_real 0)))
(define-fun .def_536 () Bool (and .def_534 .def_535))
(define-fun .def_541 () Bool (and .def_536 .def_540))
(define-fun .def_542 () Bool (and .def_53 .def_541))
(define-fun .def_552 () Bool (or .def_542 .def_551))
(define-fun .def_557 () Bool (or .def_552 .def_556))
(define-fun .def_527 () Bool (= x_72 (to_real 2)))
(define-fun .def_528 () Bool (and .def_55 .def_527))
(define-fun .def_60 () Bool (= x_52 x_66))
(define-fun .def_529 () Bool (and .def_60 .def_528))
(define-fun .def_49 () Bool (= x_47 x_61))
(define-fun .def_530 () Bool (and .def_49 .def_529))
(define-fun .def_523 () Real (+ x_61 .def_522))
(define-fun .def_524 () Bool (= .def_523 (to_real 0)))
(define-fun .def_519 () Bool (not .def_60))
(define-fun .def_517 () Bool (= x_72 (to_real 1)))
(define-fun .def_518 () Bool (and .def_55 .def_517))
(define-fun .def_520 () Bool (and .def_518 .def_519))
(define-fun .def_525 () Bool (and .def_520 .def_524))
(define-fun .def_513 () Bool (= x_52 x_71))
(define-fun .def_511 () Bool (<= x_47 .def_64))
(define-fun .def_512 () Bool (not .def_511))
(define-fun .def_514 () Bool (or .def_512 .def_513))
(define-fun .def_509 () Bool (= x_72 (to_real 0)))
(define-fun .def_510 () Bool (and .def_56 .def_509))
(define-fun .def_515 () Bool (and .def_510 .def_514))
(define-fun .def_516 () Bool (and .def_49 .def_515))
(define-fun .def_526 () Bool (or .def_516 .def_525))
(define-fun .def_531 () Bool (or .def_526 .def_530))
(define-fun .def_502 () Bool (= x_14 x_10))
(define-fun .def_500 () Bool (= x_12 x_8))
(define-fun .def_498 () Bool (= x_71 x_57))
(define-fun .def_493 () Bool (not x_52))
(define-fun .def_494 () Bool (= x_66 .def_493))
(define-fun .def_491 () Bool (= x_52 x_55))
(define-fun .def_490 () Bool (= x_70 (to_real 1)))
(define-fun .def_492 () Bool (and .def_490 .def_491))
(define-fun .def_495 () Bool (and .def_492 .def_494))
(define-fun .def_487 () Bool (= x_70 (to_real 0)))
(define-fun .def_488 () Bool (and .def_60 .def_487))
(define-fun .def_489 () Bool (and .def_62 .def_488))
(define-fun .def_496 () Bool (or .def_489 .def_495))
(define-fun .def_482 () Real (+ .def_459 .def_214))
(define-fun .def_483 () Real (+ x_62 .def_482))
(define-fun .def_484 () Bool (<= (to_real 0) .def_483))
(define-fun .def_479 () Bool (= x_48 .def_66))
(define-fun .def_477 () Bool (= x_69 x_54))
(define-fun .def_476 () Bool (= x_67 (to_real 1)))
(define-fun .def_478 () Bool (and .def_476 .def_477))
(define-fun .def_480 () Bool (and .def_478 .def_479))
(define-fun .def_485 () Bool (and .def_480 .def_484))
(define-fun .def_497 () Bool (and .def_485 .def_496))
(define-fun .def_499 () Bool (and .def_497 .def_498))
(define-fun .def_501 () Bool (and .def_499 .def_500))
(define-fun .def_503 () Bool (and .def_501 .def_502))
(define-fun .def_504 () Bool (and .def_55 .def_503))
(define-fun .def_505 () Bool (and .def_111 .def_504))
(define-fun .def_471 () Bool (= x_69 x_55))
(define-fun .def_468 () Bool (= x_68 x_54))
(define-fun .def_464 () Bool (= x_13 x_8))
(define-fun .def_465 () Bool (or .def_111 .def_464))
(define-fun .def_460 () Real (+ .def_459 .def_187))
(define-fun .def_461 () Real (+ x_64 .def_460))
(define-fun .def_462 () Bool (<= (to_real 0) .def_461))
(define-fun .def_456 () Bool (= x_50 .def_66))
(define-fun .def_454 () Bool (= x_12 x_57))
(define-fun .def_452 () Bool (= x_67 (to_real 0)))
(define-fun .def_455 () Bool (and .def_452 .def_454))
(define-fun .def_457 () Bool (and .def_455 .def_456))
(define-fun .def_463 () Bool (and .def_457 .def_462))
(define-fun .def_466 () Bool (and .def_463 .def_465))
(define-fun .def_469 () Bool (and .def_466 .def_468))
(define-fun .def_472 () Bool (and .def_469 .def_471))
(define-fun .def_473 () Bool (and .def_51 .def_472))
(define-fun .def_474 () Bool (and .def_60 .def_473))
(define-fun .def_475 () Bool (and .def_62 .def_474))
(define-fun .def_506 () Bool (or .def_475 .def_505))
(define-fun .def_445 () Bool (= x_88 (to_real 2)))
(define-fun .def_74 () Bool (= x_64 x_78))
(define-fun .def_446 () Bool (and .def_74 .def_445))
(define-fun .def_81 () Bool (= x_15 x_19))
(define-fun .def_447 () Bool (and .def_81 .def_446))
(define-fun .def_77 () Bool (= x_65 x_79))
(define-fun .def_448 () Bool (and .def_77 .def_447))
(define-fun .def_82 () Bool (<= x_62 x_64))
(define-fun .def_83 () Real (ite .def_82 x_62 x_64))
(define-fun .def_390 () Real (* (to_real (- 1)) .def_83))
(define-fun .def_391 () Real (+ .def_390 .def_256))
(define-fun .def_441 () Real (+ x_79 .def_391))
(define-fun .def_442 () Bool (= .def_441 (to_real 0)))
(define-fun .def_439 () Bool (not .def_81))
(define-fun .def_437 () Bool (= x_88 (to_real 1)))
(define-fun .def_438 () Bool (and .def_74 .def_437))
(define-fun .def_440 () Bool (and .def_438 .def_439))
(define-fun .def_443 () Bool (and .def_440 .def_442))
(define-fun .def_433 () Bool (= x_15 x_18))
(define-fun .def_431 () Bool (<= x_65 .def_83))
(define-fun .def_432 () Bool (not .def_431))
(define-fun .def_434 () Bool (or .def_432 .def_433))
(define-fun .def_429 () Bool (= x_88 (to_real 0)))
(define-fun .def_75 () Bool (not .def_74))
(define-fun .def_430 () Bool (and .def_75 .def_429))
(define-fun .def_435 () Bool (and .def_430 .def_434))
(define-fun .def_436 () Bool (and .def_77 .def_435))
(define-fun .def_444 () Bool (or .def_436 .def_443))
(define-fun .def_449 () Bool (or .def_444 .def_448))
(define-fun .def_422 () Bool (= x_87 (to_real 2)))
(define-fun .def_70 () Bool (= x_62 x_76))
(define-fun .def_423 () Bool (and .def_70 .def_422))
(define-fun .def_109 () Bool (= x_17 x_13))
(define-fun .def_424 () Bool (and .def_109 .def_423))
(define-fun .def_72 () Bool (= x_63 x_77))
(define-fun .def_425 () Bool (and .def_72 .def_424))
(define-fun .def_84 () Bool (<= x_64 x_62))
(define-fun .def_85 () Real (ite .def_84 x_64 x_62))
(define-fun .def_328 () Real (* (to_real (- 1)) .def_85))
(define-fun .def_417 () Real (+ .def_328 .def_285))
(define-fun .def_418 () Real (+ x_77 .def_417))
(define-fun .def_419 () Bool (= .def_418 (to_real 0)))
(define-fun .def_414 () Bool (not .def_109))
(define-fun .def_412 () Bool (= x_87 (to_real 1)))
(define-fun .def_413 () Bool (and .def_70 .def_412))
(define-fun .def_415 () Bool (and .def_413 .def_414))
(define-fun .def_420 () Bool (and .def_415 .def_419))
(define-fun .def_408 () Bool (= x_13 x_82))
(define-fun .def_406 () Bool (<= x_63 .def_85))
(define-fun .def_407 () Bool (not .def_406))
(define-fun .def_409 () Bool (or .def_407 .def_408))
(define-fun .def_404 () Bool (not .def_70))
(define-fun .def_403 () Bool (= x_87 (to_real 0)))
(define-fun .def_405 () Bool (and .def_403 .def_404))
(define-fun .def_410 () Bool (and .def_405 .def_409))
(define-fun .def_411 () Bool (and .def_72 .def_410))
(define-fun .def_421 () Bool (or .def_411 .def_420))
(define-fun .def_426 () Bool (or .def_421 .def_425))
(define-fun .def_396 () Bool (= x_86 (to_real 2)))
(define-fun .def_397 () Bool (and .def_74 .def_396))
(define-fun .def_79 () Bool (= x_66 x_80))
(define-fun .def_398 () Bool (and .def_79 .def_397))
(define-fun .def_68 () Bool (= x_61 x_75))
(define-fun .def_399 () Bool (and .def_68 .def_398))
(define-fun .def_392 () Real (+ x_75 .def_391))
(define-fun .def_393 () Bool (= .def_392 (to_real 0)))
(define-fun .def_388 () Bool (not .def_79))
(define-fun .def_386 () Bool (= x_86 (to_real 1)))
(define-fun .def_387 () Bool (and .def_74 .def_386))
(define-fun .def_389 () Bool (and .def_387 .def_388))
(define-fun .def_394 () Bool (and .def_389 .def_393))
(define-fun .def_382 () Bool (= x_66 x_85))
(define-fun .def_380 () Bool (<= x_61 .def_83))
(define-fun .def_381 () Bool (not .def_380))
(define-fun .def_383 () Bool (or .def_381 .def_382))
(define-fun .def_378 () Bool (= x_86 (to_real 0)))
(define-fun .def_379 () Bool (and .def_75 .def_378))
(define-fun .def_384 () Bool (and .def_379 .def_383))
(define-fun .def_385 () Bool (and .def_68 .def_384))
(define-fun .def_395 () Bool (or .def_385 .def_394))
(define-fun .def_400 () Bool (or .def_395 .def_399))
(define-fun .def_371 () Bool (= x_18 x_14))
(define-fun .def_369 () Bool (= x_16 x_12))
(define-fun .def_367 () Bool (= x_85 x_71))
(define-fun .def_362 () Bool (not x_66))
(define-fun .def_363 () Bool (= x_80 .def_362))
(define-fun .def_360 () Bool (= x_66 x_69))
(define-fun .def_359 () Bool (= x_84 (to_real 1)))
(define-fun .def_361 () Bool (and .def_359 .def_360))
(define-fun .def_364 () Bool (and .def_361 .def_363))
(define-fun .def_356 () Bool (= x_84 (to_real 0)))
(define-fun .def_357 () Bool (and .def_79 .def_356))
(define-fun .def_358 () Bool (and .def_81 .def_357))
(define-fun .def_365 () Bool (or .def_358 .def_364))
(define-fun .def_351 () Real (+ .def_328 .def_214))
(define-fun .def_352 () Real (+ x_76 .def_351))
(define-fun .def_353 () Bool (<= (to_real 0) .def_352))
(define-fun .def_348 () Bool (= x_62 .def_85))
(define-fun .def_346 () Bool (= x_83 x_68))
(define-fun .def_345 () Bool (= x_81 (to_real 1)))
(define-fun .def_347 () Bool (and .def_345 .def_346))
(define-fun .def_349 () Bool (and .def_347 .def_348))
(define-fun .def_354 () Bool (and .def_349 .def_353))
(define-fun .def_366 () Bool (and .def_354 .def_365))
(define-fun .def_368 () Bool (and .def_366 .def_367))
(define-fun .def_370 () Bool (and .def_368 .def_369))
(define-fun .def_372 () Bool (and .def_370 .def_371))
(define-fun .def_373 () Bool (and .def_74 .def_372))
(define-fun .def_374 () Bool (and .def_109 .def_373))
(define-fun .def_340 () Bool (= x_83 x_69))
(define-fun .def_337 () Bool (= x_82 x_68))
(define-fun .def_333 () Bool (= x_17 x_12))
(define-fun .def_334 () Bool (or .def_109 .def_333))
(define-fun .def_329 () Real (+ .def_328 .def_187))
(define-fun .def_330 () Real (+ x_78 .def_329))
(define-fun .def_331 () Bool (<= (to_real 0) .def_330))
(define-fun .def_325 () Bool (= x_64 .def_85))
(define-fun .def_323 () Bool (= x_16 x_71))
(define-fun .def_321 () Bool (= x_81 (to_real 0)))
(define-fun .def_324 () Bool (and .def_321 .def_323))
(define-fun .def_326 () Bool (and .def_324 .def_325))
(define-fun .def_332 () Bool (and .def_326 .def_331))
(define-fun .def_335 () Bool (and .def_332 .def_334))
(define-fun .def_338 () Bool (and .def_335 .def_337))
(define-fun .def_341 () Bool (and .def_338 .def_340))
(define-fun .def_342 () Bool (and .def_70 .def_341))
(define-fun .def_343 () Bool (and .def_79 .def_342))
(define-fun .def_344 () Bool (and .def_81 .def_343))
(define-fun .def_375 () Bool (or .def_344 .def_374))
(define-fun .def_314 () Bool (= x_106 (to_real 2)))
(define-fun .def_93 () Bool (= x_78 x_92))
(define-fun .def_315 () Bool (and .def_93 .def_314))
(define-fun .def_100 () Bool (= x_19 x_95))
(define-fun .def_316 () Bool (and .def_100 .def_315))
(define-fun .def_96 () Bool (= x_79 x_93))
(define-fun .def_317 () Bool (and .def_96 .def_316))
(define-fun .def_101 () Bool (<= x_76 x_78))
(define-fun .def_102 () Real (ite .def_101 x_76 x_78))
(define-fun .def_257 () Real (* (to_real (- 1)) .def_102))
(define-fun .def_258 () Real (+ .def_257 .def_256))
(define-fun .def_310 () Real (+ x_93 .def_258))
(define-fun .def_311 () Bool (= .def_310 (to_real 0)))
(define-fun .def_308 () Bool (not .def_100))
(define-fun .def_306 () Bool (= x_106 (to_real 1)))
(define-fun .def_307 () Bool (and .def_93 .def_306))
(define-fun .def_309 () Bool (and .def_307 .def_308))
(define-fun .def_312 () Bool (and .def_309 .def_311))
(define-fun .def_302 () Bool (= x_19 x_103))
(define-fun .def_300 () Bool (<= x_79 .def_102))
(define-fun .def_301 () Bool (not .def_300))
(define-fun .def_303 () Bool (or .def_301 .def_302))
(define-fun .def_298 () Bool (= x_106 (to_real 0)))
(define-fun .def_94 () Bool (not .def_93))
(define-fun .def_299 () Bool (and .def_94 .def_298))
(define-fun .def_304 () Bool (and .def_299 .def_303))
(define-fun .def_305 () Bool (and .def_96 .def_304))
(define-fun .def_313 () Bool (or .def_305 .def_312))
(define-fun .def_318 () Bool (or .def_313 .def_317))
(define-fun .def_291 () Bool (= x_105 (to_real 2)))
(define-fun .def_89 () Bool (= x_76 x_90))
(define-fun .def_292 () Bool (and .def_89 .def_291))
(define-fun .def_107 () Bool (= x_98 x_17))
(define-fun .def_293 () Bool (and .def_107 .def_292))
(define-fun .def_91 () Bool (= x_77 x_91))
(define-fun .def_294 () Bool (and .def_91 .def_293))
(define-fun .def_103 () Bool (<= x_78 x_76))
(define-fun .def_104 () Real (ite .def_103 x_78 x_76))
(define-fun .def_188 () Real (* (to_real (- 1)) .def_104))
(define-fun .def_286 () Real (+ .def_188 .def_285))
(define-fun .def_287 () Real (+ x_91 .def_286))
(define-fun .def_288 () Bool (= .def_287 (to_real 0)))
(define-fun .def_282 () Bool (not .def_107))
(define-fun .def_280 () Bool (= x_105 (to_real 1)))
(define-fun .def_281 () Bool (and .def_89 .def_280))
(define-fun .def_283 () Bool (and .def_281 .def_282))
(define-fun .def_289 () Bool (and .def_283 .def_288))
(define-fun .def_276 () Bool (= x_17 x_99))
(define-fun .def_274 () Bool (<= x_77 .def_104))
(define-fun .def_275 () Bool (not .def_274))
(define-fun .def_277 () Bool (or .def_275 .def_276))
(define-fun .def_272 () Bool (not .def_89))
(define-fun .def_271 () Bool (= x_105 (to_real 0)))
(define-fun .def_273 () Bool (and .def_271 .def_272))
(define-fun .def_278 () Bool (and .def_273 .def_277))
(define-fun .def_279 () Bool (and .def_91 .def_278))
(define-fun .def_290 () Bool (or .def_279 .def_289))
(define-fun .def_295 () Bool (or .def_290 .def_294))
(define-fun .def_264 () Bool (= x_104 (to_real 2)))
(define-fun .def_265 () Bool (and .def_93 .def_264))
(define-fun .def_98 () Bool (= x_80 x_94))
(define-fun .def_266 () Bool (and .def_98 .def_265))
(define-fun .def_87 () Bool (= x_75 x_89))
(define-fun .def_267 () Bool (and .def_87 .def_266))
(define-fun .def_259 () Real (+ x_89 .def_258))
(define-fun .def_260 () Bool (= .def_259 (to_real 0)))
(define-fun .def_254 () Bool (not .def_98))
(define-fun .def_252 () Bool (= x_104 (to_real 1)))
(define-fun .def_253 () Bool (and .def_93 .def_252))
(define-fun .def_255 () Bool (and .def_253 .def_254))
(define-fun .def_261 () Bool (and .def_255 .def_260))
(define-fun .def_248 () Bool (= x_80 x_102))
(define-fun .def_246 () Bool (<= x_75 .def_102))
(define-fun .def_247 () Bool (not .def_246))
(define-fun .def_249 () Bool (or .def_247 .def_248))
(define-fun .def_244 () Bool (= x_104 (to_real 0)))
(define-fun .def_245 () Bool (and .def_94 .def_244))
(define-fun .def_250 () Bool (and .def_245 .def_249))
(define-fun .def_251 () Bool (and .def_87 .def_250))
(define-fun .def_262 () Bool (or .def_251 .def_261))
(define-fun .def_268 () Bool (or .def_262 .def_267))
(define-fun .def_237 () Bool (= x_18 x_103))
(define-fun .def_234 () Bool (= x_16 x_97))
(define-fun .def_232 () Bool (= x_85 x_102))
(define-fun .def_226 () Bool (not x_80))
(define-fun .def_227 () Bool (= x_94 .def_226))
(define-fun .def_224 () Bool (= x_80 x_83))
(define-fun .def_223 () Bool (= x_101 (to_real 1)))
(define-fun .def_225 () Bool (and .def_223 .def_224))
(define-fun .def_228 () Bool (and .def_225 .def_227))
(define-fun .def_220 () Bool (= x_101 (to_real 0)))
(define-fun .def_221 () Bool (and .def_98 .def_220))
(define-fun .def_222 () Bool (and .def_100 .def_221))
(define-fun .def_229 () Bool (or .def_222 .def_228))
(define-fun .def_215 () Real (+ .def_188 .def_214))
(define-fun .def_216 () Real (+ x_90 .def_215))
(define-fun .def_217 () Bool (<= (to_real 0) .def_216))
(define-fun .def_211 () Bool (= x_76 .def_104))
(define-fun .def_209 () Bool (= x_82 x_100))
(define-fun .def_208 () Bool (= x_96 (to_real 1)))
(define-fun .def_210 () Bool (and .def_208 .def_209))
(define-fun .def_212 () Bool (and .def_210 .def_211))
(define-fun .def_218 () Bool (and .def_212 .def_217))
(define-fun .def_230 () Bool (and .def_218 .def_229))
(define-fun .def_233 () Bool (and .def_230 .def_232))
(define-fun .def_235 () Bool (and .def_233 .def_234))
(define-fun .def_238 () Bool (and .def_235 .def_237))
(define-fun .def_239 () Bool (and .def_93 .def_238))
(define-fun .def_240 () Bool (and .def_107 .def_239))
(define-fun .def_202 () Bool (= x_100 x_83))
(define-fun .def_198 () Bool (= x_99 x_82))
(define-fun .def_193 () Bool (= x_98 x_16))
(define-fun .def_194 () Bool (or .def_107 .def_193))
(define-fun .def_189 () Real (+ .def_188 .def_187))
(define-fun .def_190 () Real (+ x_92 .def_189))
(define-fun .def_191 () Bool (<= (to_real 0) .def_190))
(define-fun .def_183 () Bool (= x_78 .def_104))
(define-fun .def_181 () Bool (= x_97 x_85))
(define-fun .def_178 () Bool (= x_96 (to_real 0)))
(define-fun .def_182 () Bool (and .def_178 .def_181))
(define-fun .def_184 () Bool (and .def_182 .def_183))
(define-fun .def_192 () Bool (and .def_184 .def_191))
(define-fun .def_195 () Bool (and .def_192 .def_194))
(define-fun .def_199 () Bool (and .def_195 .def_198))
(define-fun .def_203 () Bool (and .def_199 .def_202))
(define-fun .def_204 () Bool (and .def_89 .def_203))
(define-fun .def_205 () Bool (and .def_98 .def_204))
(define-fun .def_206 () Bool (and .def_100 .def_205))
(define-fun .def_241 () Bool (or .def_206 .def_240))
(define-fun .def_174 () Bool (= x_3 x_2))
(define-fun .def_172 () Bool (= x_1 x_0))
(define-fun .def_175 () Bool (or .def_172 .def_174))
(define-fun .def_168 () Bool (= x_7 x_6))
(define-fun .def_166 () Bool (= x_5 x_4))
(define-fun .def_169 () Bool (or .def_166 .def_168))
(define-fun .def_162 () Bool (= x_11 x_10))
(define-fun .def_160 () Bool (= x_9 x_8))
(define-fun .def_163 () Bool (or .def_160 .def_162))
(define-fun .def_156 () Bool (= x_15 x_14))
(define-fun .def_154 () Bool (= x_13 x_12))
(define-fun .def_157 () Bool (or .def_154 .def_156))
(define-fun .def_150 () Bool (= x_19 x_18))
(define-fun .def_148 () Bool (= x_17 x_16))
(define-fun .def_151 () Bool (or .def_148 .def_150))
(define-fun .def_144 () Bool (<= x_33 x_45))
(define-fun .def_145 () Bool (not .def_144))
(define-fun .def_141 () Bool (<= x_32 x_45))
(define-fun .def_142 () Bool (not .def_141))
(define-fun .def_139 () Bool (<= (to_real 0) x_45))
(define-fun .def_135 () Bool (<= x_33 x_34))
(define-fun .def_136 () Bool (not .def_135))
(define-fun .def_132 () Bool (<= x_32 x_34))
(define-fun .def_133 () Bool (not .def_132))
(define-fun .def_130 () Bool (<= (to_real 0) x_34))
(define-fun .def_127 () Bool (<= x_33 (to_real 0)))
(define-fun .def_128 () Bool (not .def_127))
(define-fun .def_124 () Bool (<= x_32 (to_real 0)))
(define-fun .def_125 () Bool (not .def_124))
(define-fun .def_129 () Bool (and .def_125 .def_128))
(define-fun .def_131 () Bool (and .def_129 .def_130))
(define-fun .def_134 () Bool (and .def_131 .def_133))
(define-fun .def_137 () Bool (and .def_134 .def_136))
(define-fun .def_140 () Bool (and .def_137 .def_139))
(define-fun .def_143 () Bool (and .def_140 .def_142))
(define-fun .def_146 () Bool (and .def_143 .def_145))
(define-fun .def_152 () Bool (and .def_146 .def_151))
(define-fun .def_158 () Bool (and .def_152 .def_157))
(define-fun .def_164 () Bool (and .def_158 .def_163))
(define-fun .def_170 () Bool (and .def_164 .def_169))
(define-fun .def_176 () Bool (and .def_170 .def_175))
(define-fun .def_242 () Bool (and .def_176 .def_241))
(define-fun .def_269 () Bool (and .def_242 .def_268))
(define-fun .def_296 () Bool (and .def_269 .def_295))
(define-fun .def_319 () Bool (and .def_296 .def_318))
(define-fun .def_376 () Bool (and .def_319 .def_375))
(define-fun .def_401 () Bool (and .def_376 .def_400))
(define-fun .def_427 () Bool (and .def_401 .def_426))
(define-fun .def_450 () Bool (and .def_427 .def_449))
(define-fun .def_507 () Bool (and .def_450 .def_506))
(define-fun .def_532 () Bool (and .def_507 .def_531))
(define-fun .def_558 () Bool (and .def_532 .def_557))
(define-fun .def_581 () Bool (and .def_558 .def_580))
(define-fun .def_638 () Bool (and .def_581 .def_637))
(define-fun .def_663 () Bool (and .def_638 .def_662))
(define-fun .def_689 () Bool (and .def_663 .def_688))
(define-fun .def_712 () Bool (and .def_689 .def_711))
(define-fun .def_769 () Bool (and .def_712 .def_768))
(define-fun .def_794 () Bool (and .def_769 .def_793))
(define-fun .def_820 () Bool (and .def_794 .def_819))
(define-fun .def_843 () Bool (and .def_820 .def_842))
(define-fun .def_846 () Bool (and .def_843 .def_845))
(define-fun .def_849 () Bool (and .def_846 .def_848))
(define-fun .def_852 () Bool (and .def_849 .def_851))
(assert .def_852)
(minimize z)
(check-sat)
(get-objectives)
(exit)
